************************************************************************
file with basedata            : mm63_.bas
initial value random generator: 1979651787
************************************************************************
projects                      :  1
jobs (incl. supersource/sink ):  12
horizon                       :  77
RESOURCES
  - renewable                 :  2   R
  - nonrenewable              :  2   N
  - doubly constrained        :  0   D
************************************************************************
PROJECT INFORMATION:
pronr.  #jobs rel.date duedate tardcost  MPM-Time
    1     10      0       17        3       17
************************************************************************
PRECEDENCE RELATIONS:
jobnr.    #modes  #successors   successors
   0        1          3           1   2   3
   1        3          2           4   5
   2        3          3           7   8   9
   3        3          1          10
   4        3          2           6   8
   5        3          1           9
   6        3          2           9  10
   7        3          1          10
   8        3          1          11
   9        3          1          11
  10        3          1          11
  11        1          0        
************************************************************************
REQUESTS/DURATIONS:
jobnr. mode duration  R 1  R 2  R 3  R 4  E(W 1)  E(W 2)
------------------------------------------------------------------------
  0      1     0       0    0    0    0     0       0
  1      1     8       5    4    2    5    72      56
  2      1     2       9    5    6    6    28      24
  3      1     1      10    8    5    6    18      11
  4      1     3       5    8    1    7    39      27
  5      1     2       8    7   10    7    30      34
  6      1     2       9    6    2    6    30      16
  7      1     4       8    6    6    9    56      60
  8      1     3       4    8    8    7    36      45
  9      1     4       5    9    9    8    56      68
 10      1     1       7    6    9    2    13      11
 11      1     0       0    0    0    0     0       0
************************************************************************
RESOURCEAVAILABILITIES:
  R 1  R 2
   47   116
************************************************************************
RESOURCE LIMITS:
jobnr.  l(R 1)  u(R 1)  l(R 2)  u(R 2)
------------------------------------------------------------------------
  0        0       0       0       0
  1        5       9       4       7
  2        8      14       6      12
  3        9      18       6      11
  4        7      13       5       9
  5        8      15       9      17
  6        8      15       4       8
  7        7      14       8      15
  8        6      12       8      15
  9        8      14       9      17
 10        7      13       6      11
 11        0       0       0       0
************************************************************************
SCENARIOS:
------------------------------------------------------------------------
RESOURCE k = 1
s = 1: (0, 60, 18, 18, 40, 36, 32, 57, 27, 65, 13, 0)
s = 2: (0, 84, 16, 12, 24, 20, 33, 78, 35, 77, 15, 0)
s = 3: (0, 47, 41, 13, 27, 43, 33, 51, 33, 60, 13, 0)
s = 4: (0, 52, 22, 19, 61, 25, 32, 55, 53, 67, 11, 0)
s = 5: (0, 50, 21, 24, 36, 33, 42, 55, 45, 74, 21, 0)
s = 6: (0, 49, 26, 19, 35, 16, 37, 42, 26, 99, 9, 0)
s = 7: (0, 64, 26, 23, 23, 26, 25, 54, 39, 55, 8, 0)
s = 8: (0, 104, 30, 18, 38, 29, 36, 64, 50, 50, 15, 0)
s = 9: (0, 46, 24, 18, 24, 50, 35, 41, 30, 61, 14, 0)
s = 10: (0, 105, 44, 21, 33, 35, 37, 63, 22, 67, 22, 0)
s = 11: (0, 76, 19, 18, 28, 28, 30, 50, 43, 90, 13, 0)
s = 12: (0, 93, 40, 20, 28, 24, 22, 72, 34, 52, 11, 0)
s = 13: (0, 65, 24, 18, 33, 22, 38, 35, 50, 45, 19, 0)
s = 14: (0, 54, 18, 19, 26, 25, 32, 42, 27, 76, 9, 0)
s = 15: (0, 96, 22, 18, 45, 31, 44, 85, 48, 56, 14, 0)
s = 16: (0, 83, 22, 15, 51, 24, 28, 45, 38, 69, 14, 0)
s = 17: (0, 94, 22, 21, 48, 52, 32, 58, 29, 33, 12, 0)
s = 18: (0, 52, 30, 25, 52, 30, 20, 77, 22, 49, 18, 0)
s = 19: (0, 55, 29, 21, 21, 36, 24, 70, 20, 87, 13, 0)
s = 20: (0, 80, 48, 24, 66, 17, 27, 38, 33, 43, 10, 0)
s = 21: (0, 86, 25, 11, 51, 29, 20, 66, 37, 53, 14, 0)
s = 22: (0, 78, 30, 16, 28, 32, 39, 65, 51, 32, 13, 0)
s = 23: (0, 80, 25, 13, 23, 33, 20, 39, 41, 83, 12, 0)
s = 24: (0, 57, 25, 16, 36, 27, 30, 39, 48, 46, 9, 0)
s = 25: (0, 122, 30, 15, 42, 35, 30, 44, 41, 66, 11, 0)
s = 26: (0, 111, 26, 16, 40, 33, 34, 53, 33, 54, 15, 0)
s = 27: (0, 86, 21, 22, 55, 28, 40, 33, 25, 33, 23, 0)
s = 28: (0, 65, 19, 12, 49, 23, 37, 62, 28, 83, 12, 0)
s = 29: (0, 54, 27, 24, 29, 36, 20, 45, 35, 76, 19, 0)
s = 30: (0, 67, 24, 17, 28, 44, 24, 75, 42, 41, 10, 0)
s = 31: (0, 53, 39, 15, 29, 30, 21, 34, 45, 55, 13, 0)
s = 32: (0, 90, 41, 17, 46, 31, 18, 36, 45, 93, 14, 0)
s = 33: (0, 75, 25, 16, 52, 41, 25, 60, 34, 69, 14, 0)
s = 34: (0, 55, 23, 20, 41, 52, 38, 60, 29, 80, 11, 0)
s = 35: (0, 72, 36, 19, 29, 24, 42, 62, 46, 78, 13, 0)
s = 36: (0, 82, 35, 20, 37, 32, 37, 66, 58, 52, 17, 0)
s = 37: (0, 66, 33, 13, 46, 33, 32, 52, 30, 41, 9, 0)
s = 38: (0, 63, 26, 18, 24, 44, 35, 78, 36, 94, 11, 0)
s = 39: (0, 49, 47, 18, 55, 19, 26, 48, 37, 72, 12, 0)
s = 40: (0, 67, 28, 28, 29, 18, 22, 81, 45, 56, 11, 0)
s = 41: (0, 92, 25, 16, 22, 25, 40, 87, 30, 53, 15, 0)
s = 42: (0, 44, 33, 14, 34, 29, 25, 46, 46, 50, 8, 0)
s = 43: (0, 43, 18, 19, 37, 29, 23, 54, 23, 63, 10, 0)
s = 44: (0, 106, 34, 23, 49, 19, 40, 89, 28, 67, 14, 0)
s = 45: (0, 87, 38, 28, 39, 27, 18, 58, 32, 49, 8, 0)
s = 46: (0, 81, 24, 24, 36, 26, 22, 62, 36, 68, 10, 0)
s = 47: (0, 68, 17, 14, 49, 32, 35, 66, 23, 38, 15, 0)
s = 48: (0, 66, 16, 16, 53, 29, 17, 44, 46, 75, 8, 0)
s = 49: (0, 68, 27, 19, 33, 22, 40, 49, 41, 83, 16, 0)
s = 50: (0, 90, 40, 16, 30, 27, 25, 89, 52, 80, 10, 0)
s = 51: (0, 57, 46, 17, 30, 24, 29, 69, 34, 66, 14, 0)
s = 52: (0, 69, 34, 18, 32, 41, 36, 47, 25, 66, 10, 0)
s = 53: (0, 71, 28, 11, 32, 32, 39, 33, 48, 57, 16, 0)
s = 54: (0, 56, 33, 12, 35, 39, 41, 54, 53, 53, 18, 0)
s = 55: (0, 48, 25, 24, 38, 18, 24, 104, 28, 55, 15, 0)
s = 56: (0, 73, 28, 15, 43, 34, 21, 59, 41, 39, 13, 0)
s = 57: (0, 55, 31, 15, 30, 37, 30, 44, 41, 63, 14, 0)
s = 58: (0, 68, 34, 25, 45, 26, 33, 75, 24, 35, 13, 0)
s = 59: (0, 54, 34, 22, 27, 30, 33, 69, 44, 64, 20, 0)
s = 60: (0, 54, 28, 19, 24, 30, 16, 67, 31, 33, 14, 0)
s = 61: (0, 77, 21, 18, 37, 21, 40, 59, 40, 73, 10, 0)
s = 62: (0, 53, 18, 21, 35, 38, 37, 35, 28, 52, 8, 0)
s = 63: (0, 74, 24, 10, 51, 17, 29, 62, 36, 60, 13, 0)
s = 64: (0, 64, 34, 11, 42, 40, 20, 57, 21, 82, 14, 0)
s = 65: (0, 58, 18, 15, 32, 27, 38, 74, 38, 45, 12, 0)
s = 66: (0, 50, 21, 25, 36, 22, 24, 34, 31, 40, 10, 0)
s = 67: (0, 73, 26, 28, 43, 40, 46, 37, 27, 71, 11, 0)
s = 68: (0, 68, 29, 14, 62, 18, 30, 51, 32, 50, 15, 0)
s = 69: (0, 54, 38, 16, 36, 21, 41, 43, 32, 60, 16, 0)
s = 70: (0, 67, 15, 26, 38, 40, 43, 37, 54, 46, 9, 0)
s = 71: (0, 72, 46, 17, 33, 26, 19, 60, 24, 32, 10, 0)
s = 72: (0, 46, 18, 19, 44, 30, 25, 59, 32, 52, 13, 0)
s = 73: (0, 62, 35, 26, 38, 37, 43, 31, 36, 57, 12, 0)
s = 74: (0, 68, 28, 17, 38, 30, 20, 51, 29, 53, 11, 0)
s = 75: (0, 75, 20, 27, 38, 23, 19, 47, 40, 39, 13, 0)
s = 76: (0, 69, 31, 17, 35, 21, 36, 56, 37, 40, 12, 0)
s = 77: (0, 89, 33, 28, 24, 35, 54, 108, 31, 60, 9, 0)
s = 78: (0, 66, 40, 25, 36, 54, 22, 38, 42, 62, 19, 0)
s = 79: (0, 76, 18, 16, 33, 20, 39, 39, 34, 59, 10, 0)
s = 80: (0, 85, 36, 19, 37, 32, 28, 81, 36, 48, 23, 0)
s = 81: (0, 60, 19, 16, 36, 48, 24, 35, 31, 87, 12, 0)
s = 82: (0, 66, 34, 23, 31, 36, 39, 89, 26, 49, 11, 0)
s = 83: (0, 45, 19, 23, 26, 24, 30, 56, 21, 70, 19, 0)
s = 84: (0, 100, 22, 26, 38, 29, 17, 48, 24, 48, 11, 0)
s = 85: (0, 83, 21, 23, 41, 25, 39, 59, 47, 72, 13, 0)
s = 86: (0, 63, 21, 20, 74, 28, 31, 48, 24, 43, 9, 0)
s = 87: (0, 100, 32, 15, 46, 28, 52, 36, 57, 55, 17, 0)
s = 88: (0, 49, 29, 21, 58, 33, 21, 76, 37, 40, 16, 0)
s = 89: (0, 64, 19, 15, 47, 21, 40, 79, 60, 58, 10, 0)
s = 90: (0, 52, 36, 20, 31, 20, 47, 48, 72, 50, 13, 0)
s = 91: (0, 73, 31, 19, 27, 36, 38, 43, 27, 39, 11, 0)
s = 92: (0, 89, 29, 11, 41, 32, 40, 43, 61, 44, 12, 0)
s = 93: (0, 100, 23, 22, 43, 17, 33, 50, 32, 32, 18, 0)
s = 94: (0, 84, 29, 14, 32, 36, 38, 75, 38, 32, 11, 0)
s = 95: (0, 82, 27, 17, 44, 27, 24, 70, 30, 46, 14, 0)
s = 96: (0, 56, 38, 17, 62, 36, 25, 57, 60, 78, 11, 0)
s = 97: (0, 54, 45, 15, 36, 18, 30, 64, 54, 35, 13, 0)
s = 98: (0, 79, 29, 13, 31, 34, 24, 76, 32, 41, 12, 0)
s = 99: (0, 97, 32, 21, 36, 32, 25, 73, 20, 50, 18, 0)
s = 100: (0, 58, 26, 15, 26, 27, 35, 85, 49, 76, 11, 0)
s = 101: (0, 53, 41, 22, 37, 32, 26, 34, 22, 72, 13, 0)
s = 102: (0, 60, 23, 21, 37, 29, 45, 51, 44, 62, 9, 0)
s = 103: (0, 84, 24, 16, 47, 41, 21, 59, 38, 68, 8, 0)
s = 104: (0, 48, 40, 22, 50, 35, 59, 58, 34, 50, 13, 0)
s = 105: (0, 42, 33, 11, 36, 20, 19, 36, 19, 42, 20, 0)
s = 106: (0, 112, 21, 18, 56, 30, 45, 42, 37, 65, 7, 0)
s = 107: (0, 51, 30, 20, 58, 23, 30, 56, 60, 50, 16, 0)
s = 108: (0, 86, 19, 17, 34, 25, 38, 49, 57, 47, 13, 0)
s = 109: (0, 68, 29, 23, 50, 36, 29, 40, 27, 89, 12, 0)
s = 110: (0, 91, 27, 18, 58, 34, 26, 36, 42, 35, 12, 0)
s = 111: (0, 83, 29, 21, 34, 39, 29, 87, 32, 78, 15, 0)
s = 112: (0, 91, 18, 14, 42, 21, 53, 78, 35, 41, 13, 0)
s = 113: (0, 105, 22, 12, 44, 18, 23, 31, 34, 70, 16, 0)
s = 114: (0, 88, 20, 17, 28, 38, 31, 41, 46, 49, 13, 0)
s = 115: (0, 48, 28, 13, 49, 22, 22, 30, 71, 75, 21, 0)
s = 116: (0, 63, 21, 25, 31, 26, 28, 62, 27, 39, 11, 0)
s = 117: (0, 51, 17, 16, 40, 38, 29, 82, 25, 63, 12, 0)
s = 118: (0, 64, 24, 11, 36, 18, 28, 56, 23, 63, 15, 0)
s = 119: (0, 48, 21, 20, 25, 45, 30, 63, 54, 53, 11, 0)
s = 120: (0, 41, 42, 17, 30, 29, 25, 91, 47, 92, 10, 0)
s = 121: (0, 56, 25, 24, 27, 24, 22, 52, 45, 81, 23, 0)
s = 122: (0, 82, 18, 11, 47, 23, 19, 32, 42, 36, 10, 0)
s = 123: (0, 51, 22, 26, 31, 25, 20, 73, 59, 59, 13, 0)
s = 124: (0, 50, 27, 21, 28, 24, 20, 44, 47, 33, 19, 0)
s = 125: (0, 64, 30, 14, 46, 20, 25, 95, 55, 64, 11, 0)
s = 126: (0, 53, 38, 19, 53, 24, 32, 32, 30, 47, 23, 0)
s = 127: (0, 82, 24, 15, 42, 22, 34, 63, 38, 46, 18, 0)
s = 128: (0, 65, 32, 21, 41, 24, 29, 60, 32, 47, 8, 0)
s = 129: (0, 50, 45, 30, 21, 17, 50, 54, 43, 70, 13, 0)
s = 130: (0, 87, 18, 18, 54, 30, 35, 44, 28, 80, 11, 0)
s = 131: (0, 85, 28, 21, 33, 39, 39, 51, 47, 57, 12, 0)
s = 132: (0, 51, 42, 15, 32, 44, 28, 46, 37, 51, 8, 0)
s = 133: (0, 53, 46, 14, 46, 22, 17, 46, 24, 38, 12, 0)
s = 134: (0, 119, 33, 16, 31, 23, 32, 47, 31, 52, 23, 0)
s = 135: (0, 69, 22, 26, 26, 35, 36, 47, 44, 67, 11, 0)
s = 136: (0, 104, 18, 16, 56, 24, 37, 68, 41, 60, 8, 0)
s = 137: (0, 70, 34, 14, 22, 28, 42, 68, 34, 35, 9, 0)
s = 138: (0, 89, 25, 18, 34, 19, 25, 63, 60, 72, 11, 0)
s = 139: (0, 77, 42, 13, 23, 32, 24, 35, 27, 55, 14, 0)
s = 140: (0, 79, 39, 12, 37, 29, 38, 88, 53, 57, 11, 0)
s = 141: (0, 78, 35, 17, 36, 36, 51, 44, 31, 52, 17, 0)
s = 142: (0, 87, 33, 19, 39, 28, 46, 61, 54, 51, 10, 0)
s = 143: (0, 51, 24, 22, 44, 19, 25, 52, 25, 41, 9, 0)
s = 144: (0, 82, 17, 20, 57, 24, 26, 74, 36, 45, 16, 0)
s = 145: (0, 92, 24, 22, 36, 22, 29, 51, 45, 36, 16, 0)
s = 146: (0, 72, 23, 29, 63, 20, 27, 78, 25, 35, 14, 0)
s = 147: (0, 80, 22, 28, 49, 29, 29, 36, 30, 60, 24, 0)
s = 148: (0, 56, 30, 26, 38, 45, 30, 47, 38, 38, 15, 0)
s = 149: (0, 60, 21, 12, 25, 19, 41, 38, 42, 56, 11, 0)
s = 150: (0, 67, 32, 16, 41, 25, 26, 50, 53, 61, 18, 0)
s = 151: (0, 82, 39, 17, 50, 29, 28, 40, 24, 81, 21, 0)
s = 152: (0, 57, 32, 20, 37, 18, 29, 70, 43, 56, 18, 0)
s = 153: (0, 81, 26, 15, 33, 37, 29, 74, 60, 35, 14, 0)
s = 154: (0, 51, 19, 12, 39, 34, 30, 69, 54, 51, 13, 0)
s = 155: (0, 67, 20, 16, 58, 36, 25, 47, 30, 96, 13, 0)
s = 156: (0, 64, 21, 14, 27, 44, 29, 102, 40, 52, 10, 0)
s = 157: (0, 115, 29, 11, 54, 54, 41, 78, 35, 73, 14, 0)
s = 158: (0, 68, 26, 18, 51, 21, 27, 66, 46, 42, 20, 0)
s = 159: (0, 61, 33, 22, 40, 33, 17, 54, 37, 40, 20, 0)
s = 160: (0, 58, 37, 19, 45, 32, 30, 46, 58, 57, 16, 0)
s = 161: (0, 88, 22, 16, 24, 29, 31, 63, 27, 59, 9, 0)
s = 162: (0, 52, 18, 17, 50, 25, 50, 43, 32, 55, 23, 0)
s = 163: (0, 83, 22, 12, 28, 39, 23, 52, 39, 63, 11, 0)
s = 164: (0, 120, 32, 19, 27, 25, 28, 60, 46, 89, 7, 0)
s = 165: (0, 71, 23, 27, 31, 27, 44, 71, 23, 66, 9, 0)
s = 166: (0, 49, 21, 24, 48, 32, 36, 39, 38, 50, 14, 0)
s = 167: (0, 79, 33, 23, 50, 28, 25, 43, 45, 66, 10, 0)
s = 168: (0, 55, 28, 17, 41, 22, 25, 59, 34, 32, 14, 0)
s = 169: (0, 83, 48, 16, 30, 27, 33, 35, 33, 83, 28, 0)
s = 170: (0, 40, 39, 15, 58, 31, 22, 72, 41, 55, 15, 0)
s = 171: (0, 59, 29, 17, 45, 42, 21, 40, 21, 80, 11, 0)
s = 172: (0, 69, 29, 15, 42, 25, 24, 36, 40, 41, 9, 0)
s = 173: (0, 59, 20, 21, 46, 31, 34, 43, 30, 50, 16, 0)
s = 174: (0, 47, 34, 14, 35, 38, 32, 54, 19, 47, 11, 0)
s = 175: (0, 108, 29, 27, 59, 22, 30, 90, 53, 53, 15, 0)
s = 176: (0, 107, 18, 11, 55, 39, 31, 67, 34, 62, 11, 0)
s = 177: (0, 96, 33, 20, 53, 45, 25, 45, 49, 87, 15, 0)
s = 178: (0, 133, 21, 16, 36, 34, 50, 54, 37, 49, 10, 0)
s = 179: (0, 114, 39, 18, 33, 32, 24, 33, 25, 45, 22, 0)
s = 180: (0, 57, 21, 32, 53, 26, 19, 39, 43, 39, 9, 0)
s = 181: (0, 47, 40, 21, 44, 19, 24, 47, 30, 79, 15, 0)
s = 182: (0, 62, 26, 22, 46, 44, 25, 45, 29, 88, 15, 0)
s = 183: (0, 91, 25, 23, 62, 35, 23, 72, 42, 36, 11, 0)
s = 184: (0, 95, 37, 18, 55, 27, 40, 84, 27, 36, 19, 0)
s = 185: (0, 87, 26, 15, 46, 21, 27, 64, 57, 33, 12, 0)
s = 186: (0, 54, 31, 14, 45, 46, 41, 55, 39, 40, 13, 0)
s = 187: (0, 106, 36, 30, 74, 21, 52, 49, 46, 45, 15, 0)
s = 188: (0, 84, 28, 16, 22, 31, 23, 53, 37, 43, 19, 0)
s = 189: (0, 71, 46, 16, 42, 34, 27, 72, 30, 41, 11, 0)
s = 190: (0, 84, 20, 13, 41, 40, 30, 50, 37, 83, 12, 0)
s = 191: (0, 85, 34, 14, 34, 23, 36, 44, 32, 56, 18, 0)
s = 192: (0, 44, 33, 18, 47, 26, 23, 94, 25, 49, 13, 0)
s = 193: (0, 47, 20, 15, 49, 37, 28, 59, 26, 65, 12, 0)
s = 194: (0, 70, 48, 16, 72, 28, 34, 78, 41, 40, 10, 0)
s = 195: (0, 83, 18, 22, 61, 19, 31, 61, 32, 51, 12, 0)
s = 196: (0, 76, 24, 17, 55, 28, 22, 39, 28, 69, 14, 0)
s = 197: (0, 85, 24, 23, 50, 17, 31, 44, 37, 74, 20, 0)
s = 198: (0, 77, 22, 17, 41, 29, 26, 62, 36, 73, 8, 0)
s = 199: (0, 106, 36, 20, 31, 20, 39, 50, 35, 77, 15, 0)
s = 200: (0, 100, 35, 25, 35, 33, 30, 66, 33, 59, 9, 0)
------------------------------------------------------------------------
RESOURCE k = 2
s = 1: (0, 47, 15, 11, 28, 40, 17, 61, 33, 78, 11, 0)
s = 2: (0, 65, 14, 8, 17, 23, 18, 83, 44, 94, 13, 0)
s = 3: (0, 37, 36, 8, 19, 49, 18, 54, 41, 72, 11, 0)
s = 4: (0, 40, 19, 12, 42, 28, 17, 59, 66, 81, 9, 0)
s = 5: (0, 39, 18, 15, 25, 37, 22, 59, 56, 90, 18, 0)
s = 6: (0, 38, 22, 12, 24, 18, 20, 45, 32, 120, 8, 0)
s = 7: (0, 50, 22, 14, 16, 29, 14, 57, 49, 67, 7, 0)
s = 8: (0, 81, 26, 11, 26, 33, 19, 69, 63, 61, 12, 0)
s = 9: (0, 36, 21, 11, 16, 57, 19, 43, 37, 73, 12, 0)
s = 10: (0, 82, 38, 13, 23, 39, 20, 68, 27, 81, 19, 0)
s = 11: (0, 60, 16, 11, 19, 32, 16, 54, 53, 109, 11, 0)
s = 12: (0, 72, 34, 12, 19, 27, 12, 78, 42, 64, 9, 0)
s = 13: (0, 51, 21, 11, 23, 25, 21, 38, 63, 54, 16, 0)
s = 14: (0, 42, 15, 12, 18, 28, 17, 45, 33, 92, 8, 0)
s = 15: (0, 75, 19, 11, 31, 35, 24, 91, 60, 67, 12, 0)
s = 16: (0, 65, 19, 9, 36, 27, 15, 48, 47, 84, 12, 0)
s = 17: (0, 74, 19, 13, 33, 59, 17, 62, 37, 40, 10, 0)
s = 18: (0, 40, 26, 16, 36, 34, 11, 83, 27, 60, 15, 0)
s = 19: (0, 43, 25, 13, 15, 40, 13, 75, 24, 106, 11, 0)
s = 20: (0, 62, 41, 15, 46, 20, 15, 40, 41, 52, 9, 0)
s = 21: (0, 67, 22, 7, 36, 33, 11, 71, 46, 65, 12, 0)
s = 22: (0, 60, 26, 10, 19, 36, 21, 70, 64, 39, 11, 0)
s = 23: (0, 62, 22, 8, 16, 38, 11, 42, 51, 100, 11, 0)
s = 24: (0, 44, 21, 10, 25, 31, 16, 41, 60, 56, 8, 0)
s = 25: (0, 95, 26, 9, 29, 39, 16, 47, 52, 80, 9, 0)
s = 26: (0, 87, 23, 10, 28, 37, 18, 57, 41, 66, 13, 0)
s = 27: (0, 67, 18, 14, 38, 32, 22, 36, 31, 40, 20, 0)
s = 28: (0, 50, 16, 7, 34, 26, 20, 66, 35, 100, 10, 0)
s = 29: (0, 42, 23, 15, 20, 40, 11, 48, 43, 92, 16, 0)
s = 30: (0, 52, 20, 11, 19, 50, 13, 81, 52, 50, 8, 0)
s = 31: (0, 41, 33, 9, 21, 34, 11, 36, 56, 67, 11, 0)
s = 32: (0, 70, 35, 10, 32, 35, 10, 39, 56, 113, 12, 0)
s = 33: (0, 59, 21, 10, 36, 46, 14, 64, 42, 84, 12, 0)
s = 34: (0, 43, 20, 12, 28, 59, 21, 65, 36, 97, 9, 0)
s = 35: (0, 56, 31, 12, 20, 27, 23, 67, 57, 94, 11, 0)
s = 36: (0, 64, 30, 12, 26, 36, 20, 71, 73, 63, 15, 0)
s = 37: (0, 51, 29, 8, 32, 37, 17, 56, 37, 50, 8, 0)
s = 38: (0, 49, 23, 11, 17, 50, 19, 83, 45, 114, 9, 0)
s = 39: (0, 38, 40, 11, 38, 21, 14, 51, 46, 87, 10, 0)
s = 40: (0, 52, 24, 17, 20, 20, 12, 87, 56, 68, 10, 0)
s = 41: (0, 72, 21, 10, 15, 28, 22, 94, 38, 64, 12, 0)
s = 42: (0, 35, 28, 9, 24, 32, 14, 50, 58, 60, 7, 0)
s = 43: (0, 34, 15, 12, 26, 33, 12, 58, 29, 76, 8, 0)
s = 44: (0, 82, 29, 14, 34, 22, 22, 96, 35, 81, 12, 0)
s = 45: (0, 68, 33, 17, 27, 30, 10, 62, 40, 60, 7, 0)
s = 46: (0, 63, 20, 15, 25, 29, 12, 67, 44, 82, 8, 0)
s = 47: (0, 53, 14, 9, 34, 36, 19, 71, 28, 46, 13, 0)
s = 48: (0, 51, 14, 10, 37, 33, 9, 47, 57, 91, 7, 0)
s = 49: (0, 53, 23, 12, 23, 24, 21, 53, 51, 101, 13, 0)
s = 50: (0, 70, 35, 10, 21, 30, 14, 95, 65, 97, 9, 0)
s = 51: (0, 45, 40, 11, 21, 27, 16, 74, 42, 80, 12, 0)
s = 52: (0, 54, 29, 11, 22, 47, 19, 51, 32, 81, 9, 0)
s = 53: (0, 55, 24, 7, 22, 36, 21, 36, 59, 70, 14, 0)
s = 54: (0, 44, 28, 8, 24, 44, 22, 58, 66, 64, 15, 0)
s = 55: (0, 38, 22, 15, 26, 20, 13, 112, 35, 66, 13, 0)
s = 56: (0, 57, 24, 9, 30, 38, 11, 63, 52, 47, 11, 0)
s = 57: (0, 43, 27, 10, 21, 41, 16, 47, 51, 77, 12, 0)
s = 58: (0, 53, 29, 15, 31, 30, 18, 80, 30, 42, 11, 0)
s = 59: (0, 42, 30, 14, 19, 34, 18, 74, 55, 78, 17, 0)
s = 60: (0, 42, 24, 12, 17, 34, 9, 72, 39, 40, 12, 0)
s = 61: (0, 60, 18, 11, 26, 23, 21, 63, 50, 88, 9, 0)
s = 62: (0, 42, 15, 13, 24, 43, 20, 38, 34, 63, 7, 0)
s = 63: (0, 58, 20, 7, 35, 19, 16, 66, 45, 73, 11, 0)
s = 64: (0, 50, 29, 7, 29, 45, 11, 61, 27, 99, 12, 0)
s = 65: (0, 45, 16, 9, 22, 31, 21, 79, 47, 54, 11, 0)
s = 66: (0, 39, 18, 16, 25, 25, 13, 36, 39, 48, 9, 0)
s = 67: (0, 57, 23, 17, 30, 45, 25, 39, 34, 86, 10, 0)
s = 68: (0, 53, 25, 9, 43, 21, 16, 55, 40, 61, 13, 0)
s = 69: (0, 42, 33, 10, 25, 24, 22, 46, 40, 72, 14, 0)
s = 70: (0, 52, 13, 16, 27, 45, 23, 40, 67, 56, 8, 0)
s = 71: (0, 56, 40, 10, 23, 29, 10, 64, 29, 38, 9, 0)
s = 72: (0, 36, 15, 12, 31, 34, 14, 63, 39, 63, 11, 0)
s = 73: (0, 48, 30, 16, 26, 42, 23, 33, 45, 70, 10, 0)
s = 74: (0, 53, 24, 10, 26, 34, 11, 55, 36, 65, 9, 0)
s = 75: (0, 58, 17, 17, 26, 25, 10, 51, 50, 47, 11, 0)
s = 76: (0, 54, 27, 11, 25, 24, 19, 60, 46, 48, 10, 0)
s = 77: (0, 69, 28, 17, 17, 39, 29, 115, 39, 72, 8, 0)
s = 78: (0, 51, 34, 16, 25, 61, 12, 41, 53, 75, 16, 0)
s = 79: (0, 59, 15, 10, 23, 22, 21, 42, 43, 72, 9, 0)
s = 80: (0, 67, 31, 12, 25, 37, 15, 87, 45, 58, 20, 0)
s = 81: (0, 47, 16, 10, 25, 55, 13, 38, 39, 106, 10, 0)
s = 82: (0, 52, 29, 15, 21, 41, 21, 95, 32, 59, 9, 0)
s = 83: (0, 35, 16, 14, 18, 27, 16, 60, 26, 85, 16, 0)
s = 84: (0, 78, 19, 16, 27, 33, 9, 52, 30, 58, 9, 0)
s = 85: (0, 65, 18, 14, 28, 29, 21, 63, 59, 87, 11, 0)
s = 86: (0, 49, 18, 13, 51, 31, 17, 51, 30, 52, 7, 0)
s = 87: (0, 78, 27, 9, 32, 32, 28, 39, 71, 67, 14, 0)
s = 88: (0, 38, 25, 13, 40, 37, 12, 81, 46, 48, 14, 0)
s = 89: (0, 50, 16, 10, 33, 24, 21, 85, 74, 71, 9, 0)
s = 90: (0, 41, 31, 12, 21, 22, 25, 51, 90, 60, 11, 0)
s = 91: (0, 57, 27, 12, 19, 41, 20, 46, 34, 47, 10, 0)
s = 92: (0, 70, 25, 7, 29, 36, 22, 46, 76, 54, 10, 0)
s = 93: (0, 78, 19, 14, 30, 19, 18, 53, 39, 38, 16, 0)
s = 94: (0, 65, 25, 9, 22, 41, 20, 80, 47, 39, 10, 0)
s = 95: (0, 64, 23, 11, 30, 31, 13, 75, 37, 55, 12, 0)
s = 96: (0, 43, 32, 11, 43, 41, 13, 61, 74, 94, 9, 0)
s = 97: (0, 42, 39, 9, 25, 20, 16, 68, 67, 42, 11, 0)
s = 98: (0, 62, 25, 8, 22, 39, 13, 81, 40, 49, 10, 0)
s = 99: (0, 75, 28, 13, 25, 36, 14, 78, 25, 60, 15, 0)
s = 100: (0, 45, 23, 9, 18, 31, 19, 91, 62, 92, 9, 0)
s = 101: (0, 42, 35, 13, 26, 36, 14, 37, 28, 87, 11, 0)
s = 102: (0, 47, 20, 13, 26, 32, 24, 55, 54, 75, 8, 0)
s = 103: (0, 65, 20, 10, 33, 46, 11, 63, 47, 82, 7, 0)
s = 104: (0, 38, 35, 14, 35, 39, 32, 62, 43, 61, 11, 0)
s = 105: (0, 33, 28, 7, 25, 23, 10, 39, 24, 51, 17, 0)
s = 106: (0, 87, 18, 11, 39, 34, 24, 45, 47, 79, 6, 0)
s = 107: (0, 40, 26, 13, 40, 26, 16, 60, 75, 61, 14, 0)
s = 108: (0, 67, 16, 11, 24, 28, 20, 52, 71, 57, 11, 0)
s = 109: (0, 53, 25, 14, 35, 41, 16, 42, 33, 108, 10, 0)
s = 110: (0, 71, 23, 11, 40, 39, 14, 39, 53, 42, 11, 0)
s = 111: (0, 64, 25, 13, 24, 44, 16, 93, 40, 94, 13, 0)
s = 112: (0, 71, 15, 9, 29, 24, 28, 83, 44, 50, 11, 0)
s = 113: (0, 82, 19, 7, 31, 21, 12, 33, 42, 85, 14, 0)
s = 114: (0, 69, 18, 11, 20, 43, 17, 44, 57, 60, 11, 0)
s = 115: (0, 37, 24, 8, 34, 25, 12, 32, 88, 91, 18, 0)
s = 116: (0, 49, 18, 15, 21, 29, 15, 66, 34, 48, 9, 0)
s = 117: (0, 39, 15, 10, 28, 43, 16, 88, 31, 76, 11, 0)
s = 118: (0, 50, 20, 7, 25, 20, 15, 60, 29, 76, 13, 0)
s = 119: (0, 37, 18, 12, 17, 51, 16, 67, 67, 64, 9, 0)
s = 120: (0, 32, 36, 11, 21, 33, 13, 97, 59, 112, 8, 0)
s = 121: (0, 44, 21, 15, 19, 27, 12, 55, 56, 98, 19, 0)
s = 122: (0, 64, 16, 7, 33, 26, 10, 35, 53, 44, 9, 0)
s = 123: (0, 40, 19, 16, 21, 28, 11, 78, 73, 72, 11, 0)
s = 124: (0, 39, 23, 13, 19, 27, 11, 47, 58, 41, 16, 0)
s = 125: (0, 50, 26, 9, 32, 23, 14, 101, 69, 77, 9, 0)
s = 126: (0, 41, 32, 12, 37, 27, 17, 34, 38, 57, 20, 0)
s = 127: (0, 64, 20, 9, 29, 25, 18, 68, 47, 55, 15, 0)
s = 128: (0, 51, 28, 13, 28, 27, 16, 64, 40, 57, 7, 0)
s = 129: (0, 39, 38, 19, 15, 19, 27, 58, 53, 84, 11, 0)
s = 130: (0, 67, 15, 11, 38, 33, 19, 47, 35, 97, 10, 0)
s = 131: (0, 66, 24, 13, 23, 44, 21, 54, 59, 69, 10, 0)
s = 132: (0, 40, 36, 10, 22, 50, 15, 49, 46, 62, 7, 0)
s = 133: (0, 42, 39, 9, 32, 25, 9, 49, 30, 46, 10, 0)
s = 134: (0, 93, 28, 10, 22, 25, 17, 50, 38, 63, 20, 0)
s = 135: (0, 54, 19, 16, 18, 39, 19, 50, 55, 81, 10, 0)
s = 136: (0, 81, 16, 10, 39, 28, 20, 73, 51, 72, 7, 0)
s = 137: (0, 54, 29, 9, 16, 32, 22, 72, 42, 42, 8, 0)
s = 138: (0, 69, 21, 11, 24, 22, 14, 68, 75, 88, 10, 0)
s = 139: (0, 60, 36, 8, 16, 36, 13, 38, 33, 67, 12, 0)
s = 140: (0, 61, 34, 7, 26, 33, 20, 94, 66, 69, 10, 0)
s = 141: (0, 60, 30, 11, 25, 40, 27, 48, 38, 63, 14, 0)
s = 142: (0, 68, 28, 12, 27, 32, 25, 66, 67, 62, 9, 0)
s = 143: (0, 40, 20, 13, 31, 22, 14, 55, 31, 49, 8, 0)
s = 144: (0, 64, 14, 12, 39, 27, 14, 80, 45, 54, 14, 0)
s = 145: (0, 71, 21, 14, 25, 25, 16, 55, 56, 44, 14, 0)
s = 146: (0, 56, 20, 18, 44, 22, 15, 83, 31, 43, 12, 0)
s = 147: (0, 62, 19, 17, 34, 33, 16, 39, 37, 73, 21, 0)
s = 148: (0, 43, 26, 16, 27, 50, 16, 50, 48, 46, 12, 0)
s = 149: (0, 46, 18, 8, 17, 21, 22, 41, 53, 68, 9, 0)
s = 150: (0, 52, 28, 10, 29, 29, 14, 54, 66, 74, 15, 0)
s = 151: (0, 64, 34, 11, 34, 33, 15, 42, 29, 98, 18, 0)
s = 152: (0, 45, 27, 12, 26, 21, 16, 75, 53, 68, 15, 0)
s = 153: (0, 63, 23, 9, 23, 42, 16, 79, 75, 42, 12, 0)
s = 154: (0, 40, 17, 7, 27, 39, 16, 74, 67, 62, 11, 0)
s = 155: (0, 53, 17, 10, 40, 41, 14, 50, 37, 116, 11, 0)
s = 156: (0, 50, 18, 9, 19, 50, 16, 110, 50, 63, 9, 0)
s = 157: (0, 89, 25, 7, 37, 62, 22, 84, 44, 88, 12, 0)
s = 158: (0, 53, 23, 11, 35, 24, 15, 70, 57, 51, 17, 0)
s = 159: (0, 47, 28, 14, 28, 38, 9, 58, 46, 49, 17, 0)
s = 160: (0, 46, 32, 12, 31, 36, 16, 49, 72, 70, 13, 0)
s = 161: (0, 68, 19, 10, 16, 32, 17, 67, 34, 71, 8, 0)
s = 162: (0, 41, 16, 11, 34, 28, 27, 46, 40, 66, 19, 0)
s = 163: (0, 65, 19, 7, 19, 45, 12, 56, 49, 76, 9, 0)
s = 164: (0, 94, 28, 12, 19, 28, 15, 64, 58, 108, 6, 0)
s = 165: (0, 56, 19, 17, 21, 30, 24, 76, 29, 80, 8, 0)
s = 166: (0, 38, 18, 15, 33, 36, 19, 41, 48, 60, 12, 0)
s = 167: (0, 61, 28, 14, 35, 31, 14, 46, 56, 80, 9, 0)
s = 168: (0, 43, 24, 11, 29, 25, 14, 63, 43, 39, 12, 0)
s = 169: (0, 64, 41, 10, 21, 30, 18, 37, 41, 101, 24, 0)
s = 170: (0, 32, 33, 9, 40, 35, 12, 78, 51, 67, 12, 0)
s = 171: (0, 46, 25, 11, 31, 47, 12, 43, 26, 98, 10, 0)
s = 172: (0, 54, 25, 9, 29, 28, 13, 39, 50, 49, 7, 0)
s = 173: (0, 46, 17, 13, 32, 35, 18, 46, 37, 61, 13, 0)
s = 174: (0, 36, 29, 9, 25, 43, 17, 58, 24, 57, 10, 0)
s = 175: (0, 84, 25, 17, 41, 25, 16, 97, 67, 64, 13, 0)
s = 176: (0, 83, 16, 7, 38, 44, 17, 72, 43, 75, 9, 0)
s = 177: (0, 75, 28, 12, 37, 51, 14, 48, 61, 105, 13, 0)
s = 178: (0, 103, 18, 10, 25, 39, 27, 58, 46, 60, 9, 0)
s = 179: (0, 89, 33, 11, 23, 36, 13, 35, 32, 54, 18, 0)
s = 180: (0, 45, 18, 20, 37, 29, 10, 42, 54, 47, 7, 0)
s = 181: (0, 36, 34, 13, 30, 21, 13, 50, 37, 96, 13, 0)
s = 182: (0, 49, 22, 14, 32, 50, 14, 48, 37, 106, 13, 0)
s = 183: (0, 71, 22, 14, 43, 40, 13, 77, 53, 43, 10, 0)
s = 184: (0, 74, 32, 11, 38, 31, 21, 90, 34, 43, 16, 0)
s = 185: (0, 68, 22, 9, 32, 24, 15, 68, 71, 40, 10, 0)
s = 186: (0, 42, 26, 9, 31, 52, 22, 59, 49, 48, 11, 0)
s = 187: (0, 83, 31, 19, 52, 24, 28, 52, 58, 55, 13, 0)
s = 188: (0, 66, 24, 10, 15, 35, 12, 56, 47, 53, 17, 0)
s = 189: (0, 56, 39, 10, 29, 39, 15, 77, 37, 50, 9, 0)
s = 190: (0, 65, 17, 8, 28, 46, 16, 53, 46, 100, 10, 0)
s = 191: (0, 66, 29, 9, 23, 26, 19, 47, 40, 68, 15, 0)
s = 192: (0, 34, 28, 11, 32, 30, 12, 101, 31, 59, 11, 0)
s = 193: (0, 36, 17, 10, 34, 42, 15, 63, 33, 78, 10, 0)
s = 194: (0, 55, 41, 10, 50, 31, 18, 83, 51, 49, 9, 0)
s = 195: (0, 64, 15, 14, 42, 22, 17, 65, 40, 62, 11, 0)
s = 196: (0, 59, 21, 10, 38, 32, 12, 42, 34, 83, 12, 0)
s = 197: (0, 66, 21, 14, 35, 20, 17, 48, 46, 90, 17, 0)
s = 198: (0, 60, 19, 11, 29, 33, 14, 66, 44, 88, 7, 0)
s = 199: (0, 83, 31, 12, 22, 23, 21, 54, 43, 93, 12, 0)
s = 200: (0, 78, 30, 15, 25, 37, 16, 70, 41, 71, 8, 0)
************************************************************************
ES/LS-VALUES:
jobnr.   ES(i)    LS(i)
------------------------------------------------------------------------
  0        0        0
  1        0       44
  2        0       62
  3        0       72
  4       14       59
  5       14       65
  6       19       65
  7        3       66
  8       19       71
  9       23       69
 10       23       74
 11       30       77
************************************************************************
BIG-M-VALUES:
M1 = 53, M2 = 236
************************************************************************
